100 5000
55 100
54 452
94 50
97 197
49 408
36 437
54 443
10 500
21 207
29 24
18 440
74 197
66 129
55 39
71 494
16 164
45 67
78 355
34 256
95 84
6 485
77 29
59 434
63 56
58 159
21 113
59 164
52 219
46 449
69 378
90 400
49 444
58 87
37 261
14 23
22 115
87 53
55 437
66 344
86 154
94 179
1 325
40 97
14 156
2 450
5 62
59 96
96 306
42 210
43 321
41 227
13 269
12 243
6 483
98 457
15 37
16 172
47 448
64 391
24 13
39 74
13 395
45 100
5 205
84 230
76 388
44 101
87 379
42 463
94 25
72 290
2 142
80 121
73 202
55 431
25 450
72 465
43 257
9 87
100 254
81 482
48 354
78 376
82 165
45 433
88 160
92 445
51 454
87 250
22 346
62 492
11 479
58 149
42 191
70 465
25 149
36 418
3 311
88 445
81 431
